Route #1: 0 46 5 16 47 43 1 44 28 41 0
Route #2: 0 13 32 15 11 14 0
Route #3: 0 36 29 50 23 27 19 22 25 0
Route #4: 0 37 20 3 12 21 0
Route #5: 0 33 17 34 40 48 24 30 0
Route #6: 0 8 10 2 51 7 54 0
Route #7: 0 26 35 49 52 18 0
Route #8: 0 45 6 42 0
Route #9: 0 4 31 53 38 39 9 0
Cost 1892:
